c status 322 1469274501396
c status 236 1469274501421
c status 226 1469274503649
s td 196 226 429
b 1 344 319
b 2 126 297
b 3 308 303
b 4 309 112
b 5 318 314
b 6 319 349
b 7 310 326 321 268 235 29
b 8 348 332 2
b 9 359 316 363
b 10 316 306 363
b 11 266 399 294
b 12 360 354 327
b 13 257 343 394 29
b 14 224 427 219 420
b 15 331 342 355 16
b 16 352 354 363 334 1
b 17 361 268 222 147 406
b 18 325 329 268 16 139
b 19 351 367 357 355 88
b 20 315 328 64 163 382
b 21 330 307 306 363 382
b 22 375 393 50 289 180
b 23 304 349 317 301 312
b 24 33 137 136 401 414 410
b 25 290 365 64 163 293 1
b 26 3 324 92 109 263
b 27 320 328 362 138 41
b 28 354 327 363 334 312 1
b 29 129 143 230 189 291 400
b 30 329 307 268 100 16 139
b 31 322 317 350 76 29 370
b 32 326 365 321 268 235 338 29
b 33 371 59 87 428 60 117 120 233 92 90 169 193
b 34 311 306 363 198 147 394
b 35 337 341 334 323 355 198 246
b 36 393 50 45 199 289 173 180
b 37 112 214 152 200 205 221 274
b 38 419 427 302 19 43 82 118 241 255 271 368 397 421
b 39 75 165 248 267 11 182 229 53 230 27 152 173 276
b 40 343 340 301 279 394 418 29
b 41 203 14 117 187 234 250 398
b 42 332 307 298 338 2 210 163
b 43 345 364 340 306 312 256 76 100 163
b 44 364 317 340 306 312 256 76 100 147 163
b 45 349 317 342 303 301 312 279 370
b 46 367 357 355 256 198 88 29 163
b 47 328 175 362 138 41 64 163 382
b 48 426 302 40 77 122 145 167 216 232 277 377
b 49 299 103 254 424 44 240 1 421
b 50 314 307 306 298 210 29 16 139
b 51 172 39 407 11 254 282 149 70 296
b 52 333 342 303 76 53 187 418 370 139
b 53 260 384 48 127 229 117 184 197 295 397
b 54 327 363 334 312 350 353 269 1 4 16
b 55 243 10 87 73 133 32 89 423 208 94 370 402 91 93 300
b 56 346 357 312 362 246 350 353 2 53 406 418
b 57 415 54 66 32 428 195 208 347 394 19 204
b 58 26 239 121 98 404 254 58 149 402 429 189 209
b 59 365 321 268 323 235 338 29 64 163 293 1
b 60 251 190 177 48 416 282 424 47 160 40 43 86 167 186 241 400
b 61 374 190 66 177 407 127 401 34 56 96 86 202 207
b 62 72 170 283 67 80 42 91 113 118 178
b 63 284 165 248 137 119 116 9 136 166 184 62 204
b 64 307 306 363 268 298 338 100 2 210 29 163 16 139 382
b 65 85 133 154 391 157 123 259 108 130 18 155 238 262 273 285 421
b 66 28 13 161 201 297 24 148 194 205 295 413
b 67 151 339 355 366 222 88 147 199 254 181 217 295
b 68 59 280 87 142 428 60 117 120 233 294 92 90 155 169 193
b 69 55 46 179 244 23 160 166 429 5 152 274 358 382
b 70 341 303 301 334 312 323 355 198 222 246 279 2 210
b 71 321 268 298 323 339 256 235 338 138 25 29 41 64 163 293 1
b 72 102 245 30 423 157 229 281 297 58 93 145 219 295 296
b 73 389 49 388 81 2 15 347 58 134 176 130 90 209 221 265 291
b 74 225 111 121 213 208 281 283 114 272 405 62 115 226 253 358 413
b 75 417 105 73 391 69 414 25 101 120 123 269 218 395 62 77 169 178
b 76 357 312 355 256 198 362 246 88 350 353 2 53 406 418 29 163 4
b 77 156 45 138 106 289 347 41 83 158 196 237 167 188 189 191 207 300
b 78 317 340 342 303 301 306 312 256 350 279 76 100 147 418 29 370 163
b 79 340 342 303 301 306 312 323 339 355 366 256 350 279 76 100 147 394 418 29 370 163
b 80 175 362 338 138 208 230 281 283 41 64 163 189 226 253 382
b 81 128 214 8 1 16 18 27 65 79 86 95 115 171 185 234 273 400
b 82 124 412 146 140 107 159 69 259 29 67 35 40 125 212 232 262 276
b 83 223 244 67 114 134 184 218 237 272 370 386 402 405 22 18 62 110 139
b 84 258 12 146 259 47 218 395 95 113 135 180 270 277 287
b 85 247 335 313 416 15 104 282 44 160 18 42 141 183 212 217 234 255
b 86 409 267 140 6 2 101 104 386 422 429 130 293 1 63 68 70 91 188 380
b 87 7 239 384 52 119 373 9 107 423 428 25 144 58 96 84 110 145
b 88 17 350 353 279 101 123 269 218 22 4 77 141 150 178 185 207
b 89 399 11 379 142 259 283 294 80 240 422 22 131 181 252 274 372
b 90 50 45 60 199 228 269 289 47 94 429 113 118 173 180 183 200
b 91 342 303 301 306 312 323 339 355 366 256 246 350 279 76 100 2 25 53 147 187 394 418 29 370 163 16 139
b 92 303 301 306 334 312 323 339 355 366 256 198 222 246 350 279 76 100 2 25 53 147 187 210 394 418 29 370 163 16 139
b 93 301 306 334 312 298 323 339 355 366 256 198 222 246 350 279 76 100 138 2 25 53 147 187 210 394 418 29 370 163 16 139
b 94 306 363 334 312 268 298 323 339 355 366 256 198 338 222 246 350 279 76 100 138 2 25 53 147 187 210 394 418 29 370 163 16 139 382
b 95 363 334 312 268 298 323 339 355 366 256 198 338 222 246 350 353 279 76 100 138 2 25 53 147 187 210 269 394 418 29 370 163 1 4 16 139 382
b 96 334 312 268 298 323 339 355 366 256 198 362 338 222 246 350 353 279 76 100 138 2 25 53 147 187 210 269 394 418 29 370 163 1 4 16 139 382
b 97 312 268 298 323 339 355 366 256 198 362 338 222 246 88 350 353 279 76 100 138 2 25 53 147 187 210 269 394 406 418 29 370 163 1 4 16 139 382
b 98 264 6 136 15 25 123 161 47 80 92 20 115 209 226 249 253 285
b 99 242 245 30 373 127 381 157 282 297 56 166 42 68 131 232 287 288 295
b 100 324 179 58 83 92 94 108 109 132 176 192 422 51 91 241 263 291
b 101 390 403 378 302 38 42 51 62 65 91 113 148 162 173 186 226 261 263 265 270
b 102 268 298 323 339 355 366 256 198 235 362 338 222 246 88 350 353 279 76 100 138 2 25 53 147 187 210 269 394 406 418 29 41 64 370 163 293 1 4 16 139 382
b 103 403 378 302 38 42 51 62 65 90 91 113 131 148 162 173 186 226 238 241 261 263 265 270 380 413
b 104 54 66 121 11 32 428 34 195 53 208 347 394 80 114 272 19 186 204 231
b 105 215 10 81 37 381 201 210 259 278 158 429 163 24 40 63 115 174 219 262
b 106 280 87 136 142 428 381 396 15 60 117 120 161 233 294 92 90 141 155 169 193 209 217 261
b 107 168 39 119 142 423 401 213 60 294 44 163 27 91 141 145 155 200 219 300 358 377
b 108 408 182 37 69 101 144 424 78 293 36 51 62 74 79 122 148 188 216 255 262 398
b 109 392 412 52 177 313 379 107 381 292 120 83 97 206 402 18 20 79 296 368 377 387
b 110 214 8 1 16 18 27 65 79 86 95 115 125 135 152 171 185 200 205 221 234 252 273 274 400
b 111 383 143 34 195 229 292 396 15 56 78 196 82 162 185 189 207 253 263 387 400 425
b 112 165 248 267 137 119 11 182 116 9 32 136 229 53 230 23 166 184 27 62 152 173 180 204 276
b 113 211 378 1 4 18 38 63 68 70 93 171 174 189 191 197 202 209 249 253 275 369 398
b 114 339 355 366 256 198 235 362 338 222 246 88 350 353 279 76 100 138 2 25 53 147 187 199 210 254 269 394 406 418 29 41 64 370 163 293 1 4 16 139 181 217 295 382
b 115 105 14 73 133 107 159 391 69 99 414 25 101 120 123 201 269 29 41 218 395 62 77 169 178 193 276 295
b 116 190 66 177 407 48 416 127 401 34 57 282 424 47 56 96 160 272 40 43 86 167 186 202 207 241 296 400
b 117 376 236 48 182 146 32 136 99 101 144 147 286 385 114 132 206 272 19 27 95 155 197 231 241 249
b 118 411 153 111 13 137 71 81 99 117 394 410 97 108 70 91 141 181 217 226 249 255 262 285 300 377 420
b 119 103 100 15 57 147 220 254 336 410 424 44 134 240 35 1 18 125 164 180 202 209 249 275 377 421
b 120 335 313 416 116 404 15 104 199 254 282 44 56 149 160 18 42 84 141 181 183 212 217 231 234 255 270 369
b 121 256 198 235 362 338 222 246 88 350 353 279 76 100 138 2 25 53 147 187 199 210 254 269 286 394 406 418 29 41 64 370 163 293 1 4 16 139 181 217 261 265 270 295 300 382
b 122 198 235 362 338 222 246 88 350 353 279 76 100 138 2 25 53 147 187 199 210 220 254 269 286 394 406 418 29 41 64 370 163 293 1 4 16 139 181 217 238 250 261 263 265 270 295 300 382
b 123 235 362 338 222 246 88 350 353 279 76 100 138 2 25 53 147 187 199 210 220 254 269 281 286 289 394 406 418 29 41 64 370 163 293 1 4 16 139 181 217 238 241 249 250 261 263 265 270 287 295 300 382
b 124 427 302 19 24 43 51 63 82 110 113 118 125 171 183 219 241 255 271 276 296 358 368 382 397 420 421 425
b 125 170 143 99 213 269 281 283 289 44 67 80 94 109 370 16 24 27 42 91 113 118 141 162 178 180 287 400
b 126 362 338 222 246 88 350 353 279 76 100 138 2 25 53 147 187 199 208 210 220 230 254 269 281 283 286 289 394 406 418 29 41 64 370 163 293 1 4 16 139 181 189 217 226 238 241 249 250 253 261 263 265 270 287 295 300 382
b 127 39 407 313 119 11 142 423 401 213 25 60 254 282 294 44 114 149 163 27 70 91 141 145 155 200 216 219 265 296 300 358 377
b 128 222 246 88 350 353 279 76 100 138 2 25 53 147 187 199 208 210 220 230 233 254 259 269 281 283 286 289 394 406 418 29 41 64 272 370 163 293 1 4 16 139 181 189 217 226 238 241 249 250 253 261 262 263 265 270 273 287 295 300 382
b 129 246 88 350 353 279 76 100 138 2 25 53 147 187 199 208 210 220 230 233 254 259 269 278 281 283 286 289 394 406 418 29 41 64 272 370 163 293 1 4 16 139 181 189 217 226 238 241 249 250 253 261 262 263 265 270 271 273 277 287 288 295 300 382
b 130 10 87 73 133 6 32 81 89 423 37 381 201 208 210 259 278 94 158 370 402 429 163 24 40 63 91 93 115 174 219 234 262 300
b 131 227 8 5 18 20 36 74 84 139 150 174 180 181 185 188 189 191 193 231 232 250 253 255 262 271 285 288 291 295 300 387
b 132 45 138 60 104 106 199 228 269 289 347 385 41 47 83 94 158 196 237 429 91 113 118 167 173 180 183 186 188 189 191 200 207 300
b 133 239 384 52 121 98 119 373 9 107 154 404 423 428 25 144 210 254 58 96 149 402 429 35 84 110 139 145 189 209 212 276
b 134 21 98 11 32 71 154 159 391 195 104 106 286 336 418 237 405 19 36 42 63 95 155 169 197 216 221 275 276 425
b 135 12 30 146 388 154 259 289 47 97 192 218 395 35 130 5 18 19 24 74 95 113 135 174 180 186 212 250 270 273 277 287 368
b 136 236 48 416 137 182 146 9 32 136 423 37 99 101 144 147 286 297 336 385 67 78 114 132 206 272 19 27 86 95 135 150 155 197 231 241 249 255 372
b 137 245 30 373 127 142 423 381 157 229 281 282 289 297 394 23 56 58 166 176 192 36 42 43 68 93 131 145 162 207 219 232 287 288 295 296 377
b 138 46 179 244 23 41 44 56 80 96 97 108 149 158 160 166 196 206 429 5 16 38 51 77 115 118 152 164 212 274 358 382 421
b 139 179 244 23 41 44 56 58 64 80 83 92 94 96 97 108 109 132 149 158 160 166 176 192 196 206 422 429 5 16 38 51 77 91 115 118 152 164 212 241 263 274 291 358 382 421
b 140 61 31 116 146 373 140 159 423 99 213 57 106 120 123 278 282 289 96 109 166 237 272 386 43 68 122 167 173 217 234 296 397 413
b 141 412 52 177 313 379 146 140 107 159 69 381 195 292 120 259 29 67 83 97 206 402 405 35 18 20 40 62 77 79 125 212 232 262 276 296 368 377 387 425
b 142 88 350 353 279 76 100 138 2 25 53 117 123 147 161 187 199 208 210 220 230 233 254 259 269 278 281 283 286 289 294 394 406 418 29 41 64 272 370 163 293 1 4 16 135 139 148 150 181 189 217 226 238 241 249 250 253 261 262 263 265 270 271 273 277 287 288 295 300 382
b 143 350 353 279 76 100 138 2 25 53 101 117 123 147 161 187 199 208 210 220 230 233 254 259 269 278 281 283 286 289 294 394 406 418 29 41 64 218 272 370 22 163 293 1 4 16 77 135 139 141 148 150 178 181 185 189 207 217 226 238 241 249 250 253 261 262 263 265 270 271 273 277 287 288 295 300 382
b 144 279 76 100 138 2 25 53 101 117 123 147 161 187 199 208 210 220 230 233 254 259 269 278 281 282 283 286 289 294 297 394 406 418 29 41 64 218 272 370 22 163 293 1 4 16 77 135 139 141 148 150 178 181 185 189 207 217 226 238 241 249 250 253 261 262 263 265 270 271 273 277 287 288 295 300 382
b 145 66 177 407 48 416 121 11 127 32 428 401 34 195 53 57 208 233 282 347 394 424 47 56 80 96 114 160 272 19 40 43 86 167 181 186 202 204 207 226 231 241 296 400
b 146 248 267 137 119 11 182 116 140 6 9 32 136 229 53 187 230 278 418 23 92 166 184 240 429 22 19 27 62 95 152 173 180 183 204 205 276 300 377 380
b 147 267 137 119 11 182 116 140 6 9 32 136 229 2 53 101 104 187 230 278 418 23 92 166 184 240 370 386 422 429 22 130 293 1 19 20 27 62 63 68 70 91 95 148 152 173 180 183 188 204 205 276 300 377 380
b 148 153 111 13 137 71 81 142 99 117 201 228 297 394 410 29 97 108 176 192 35 63 68 70 91 115 141 167 178 181 194 207 212 216 217 226 249 255 262 285 300 377 397 420
b 149 384 52 407 48 121 98 119 373 127 6 9 107 154 404 423 428 229 25 117 144 201 210 254 58 94 96 149 184 218 370 402 429 35 62 84 93 110 139 145 189 197 209 212 276 295 369 397 420
b 150 14 73 133 107 159 391 69 401 99 414 25 57 101 117 120 123 187 201 233 259 269 29 41 92 114 192 218 395 402 422 62 77 145 169 178 193 194 234 250 252 275 276 295 398
b 151 111 13 121 98 137 71 81 142 99 213 117 201 208 228 281 283 297 394 410 29 97 108 114 176 192 272 405 35 62 63 68 70 90 91 115 141 167 178 181 188 194 207 212 216 217 226 249 253 255 262 285 300 358 377 380 397 413 420
b 152 31 116 379 146 373 140 388 71 159 423 428 34 99 213 292 57 106 120 123 199 201 228 230 278 282 289 96 108 109 166 237 272 386 16 43 68 74 86 122 167 173 205 216 217 221 234 276 296 397 413
b 153 76 100 138 2 25 53 101 117 123 147 161 187 199 201 208 210 220 230 233 254 259 269 278 281 282 283 286 289 294 297 394 406 418 29 41 64 83 94 108 192 218 272 370 22 163 293 1 4 16 77 93 135 139 141 148 150 155 167 178 181 185 189 193 207 209 217 226 238 241 249 250 253 261 262 263 265 270 271 273 277 287 288 295 300 382
b 154 87 73 133 6 32 81 89 136 142 423 428 37 381 396 15 60 117 120 161 201 208 210 233 259 278 294 92 94 158 272 370 402 429 163 24 40 63 90 91 93 115 141 155 169 174 193 209 217 219 234 261 262 300 397
b 155 49 140 388 81 89 2 15 25 60 106 220 347 406 58 134 176 237 395 130 20 27 40 79 82 90 93 113 135 150 162 183 209 221 238 250 265 288 291 358 387 398
b 156 13 121 98 137 119 11 9 71 81 136 142 391 99 213 229 414 101 117 161 201 208 228 281 283 297 394 410 29 92 97 108 114 176 192 272 386 405 35 130 24 36 62 63 68 70 90 91 115 141 148 167 178 181 188 194 205 207 212 216 217 226 249 253 255 262 276 285 295 300 358 377 380 397 413 420
b 157 143 34 99 157 195 213 229 292 396 414 15 101 230 269 281 283 289 410 44 56 67 78 80 94 109 196 370 386 16 24 27 42 82 91 113 118 141 162 178 180 185 189 207 253 263 287 291 387 400 425
b 158 8 1 5 16 18 20 27 36 65 74 79 84 86 95 115 125 135 139 150 152 169 171 174 178 180 181 185 188 189 191 193 200 202 205 217 221 231 232 234 250 252 253 255 262 271 273 274 285 288 291 295 300 372 387 400
b 159 378 302 1 4 18 38 42 51 62 63 65 68 70 90 91 93 113 122 131 148 162 164 171 173 174 186 189 191 194 197 202 204 207 209 212 226 238 241 249 253 261 263 265 270 275 287 369 380 387 398 413
b 160 73 133 6 9 32 81 89 107 136 142 159 391 423 428 37 69 401 381 99 396 414 15 25 57 60 101 117 120 123 161 187 201 208 210 233 259 269 278 294 29 41 92 94 114 158 192 218 272 370 395 402 422 429 163 24 40 62 63 77 90 91 93 115 141 145 155 169 174 178 193 194 209 217 219 234 250 252 261 262 275 276 295 300 397 398
b 161 244 23 29 41 44 47 56 58 64 67 80 83 92 94 96 97 108 109 114 132 134 149 158 160 166 176 184 192 196 206 218 237 240 272 370 386 395 402 405 422 429 22 5 16 18 38 51 62 77 91 95 110 115 118 131 139 152 164 212 241 263 274 291 358 382 421
b 162 302 1 4 18 19 24 38 40 42 43 51 62 63 65 68 70 77 82 90 91 93 110 113 118 122 125 131 141 145 148 155 162 164 167 171 173 174 183 186 189 191 194 197 202 204 207 209 212 216 219 226 232 238 241 249 253 255 261 263 265 270 271 275 276 277 287 288 296 358 368 369 377 380 382 387 397 398 413 420 421 425
b 163 133 6 9 32 71 81 89 107 136 142 154 159 391 404 423 428 37 69 401 381 99 157 396 414 2 15 25 53 57 60 101 117 120 123 161 187 201 208 210 233 259 269 278 294 418 29 41 92 94 108 114 158 184 192 218 272 370 395 402 422 429 130 163 18 24 40 62 63 77 90 91 93 115 122 141 145 155 169 174 178 193 194 202 209 217 219 234 238 250 252 261 262 273 275 276 277 285 295 300 368 397 398 421
b 164 30 146 373 127 388 142 154 423 381 157 229 259 278 281 282 283 289 294 297 394 23 47 56 58 97 166 176 192 218 395 405 35 130 5 18 19 24 36 42 43 68 74 93 95 113 131 135 145 162 174 180 186 191 207 212 219 232 250 253 270 273 277 287 288 295 296 368 372 377
b 165 100 138 2 15 25 53 57 101 117 120 123 147 161 187 199 201 208 210 220 230 233 254 259 269 278 281 282 283 286 289 294 297 336 394 406 410 418 424 29 41 44 64 83 94 108 134 192 206 218 240 272 370 22 35 163 293 1 4 16 18 77 93 125 135 139 141 148 150 155 164 167 178 180 181 185 189 193 202 207 209 217 226 238 241 249 250 253 261 262 263 265 270 271 273 275 277 287 288 295 300 377 382 421
b 166 138 2 15 25 53 57 60 101 104 106 117 120 123 144 147 161 187 199 201 208 210 220 228 230 233 254 259 269 278 281 282 283 286 289 294 297 336 347 385 394 406 410 418 424 29 41 44 47 64 83 94 108 134 158 192 196 206 218 237 240 272 370 429 22 35 163 293 1 4 16 18 77 91 93 113 118 125 135 139 141 148 150 155 164 167 173 178 180 181 183 185 186 188 189 191 193 200 202 207 209 217 219 226 238 241 249 250 253 261 262 263 265 270 271 273 275 277 287 288 295 300 377 382 421
b 167 52 177 407 313 48 121 98 119 379 146 373 127 140 6 9 107 154 159 404 423 428 69 401 381 195 229 292 25 117 120 144 201 210 254 259 29 58 67 83 94 96 97 149 184 206 218 370 402 405 429 35 18 20 40 62 77 79 84 93 110 125 139 145 189 194 197 209 212 232 262 276 295 296 368 369 377 387 397 420 425
b 168 177 407 313 48 416 121 98 119 11 379 146 373 127 140 6 9 32 107 154 159 404 423 428 69 401 381 34 195 229 292 25 53 57 117 120 144 201 208 210 233 254 259 282 347 394 424 29 47 56 58 67 80 83 94 96 97 114 149 160 184 206 218 272 370 402 405 429 35 163 18 19 20 40 43 62 77 79 84 86 93 110 125 139 145 167 181 186 189 194 197 202 204 207 209 212 226 231 232 241 262 276 295 296 368 369 377 387 397 398 400 420 425
b 169 407 313 48 416 121 98 119 11 379 146 373 127 140 6 9 32 107 142 154 159 404 423 428 69 401 381 34 195 213 229 292 25 53 57 60 117 120 144 201 208 210 233 254 259 282 294 347 394 424 29 44 47 56 58 67 80 83 94 96 97 114 149 160 184 206 218 272 370 402 405 429 35 163 18 19 20 27 40 43 62 70 77 79 84 86 91 93 110 125 139 141 145 155 167 181 186 189 194 197 200 202 204 207 209 212 216 219 226 231 232 241 262 265 276 295 296 300 358 368 369 377 387 397 398 400 420 425
b 170 313 48 416 121 98 119 11 116 379 146 373 127 140 6 9 32 107 142 154 159 391 404 423 428 69 401 381 34 195 213 229 292 414 15 25 53 57 60 104 117 120 144 199 201 208 210 233 254 259 282 294 347 385 394 424 29 44 47 56 58 67 80 83 94 96 97 114 149 160 184 206 218 272 370 402 405 429 35 163 18 19 20 27 40 42 43 62 70 77 79 84 86 91 93 110 115 125 139 141 145 155 167 181 183 186 188 189 194 197 200 202 204 207 209 212 216 217 219 221 226 231 232 234 241 255 262 265 270 276 295 296 300 358 368 369 377 387 397 398 400 420 425
b 171 48 416 121 98 137 119 11 182 116 379 146 373 127 140 6 9 32 107 136 142 154 159 391 404 423 428 37 69 401 381 34 99 195 213 229 292 414 15 25 53 57 60 101 104 117 120 144 147 199 201 208 210 233 254 259 282 286 294 297 336 347 385 394 424 29 44 47 56 58 67 78 80 83 94 96 97 114 132 149 160 184 206 218 272 370 402 405 429 35 163 18 19 20 27 40 42 43 62 70 77 79 84 86 91 93 95 110 115 125 135 139 141 145 150 155 167 181 183 186 188 189 194 197 200 202 204 207 209 212 216 217 219 221 226 231 232 234 241 249 255 262 265 270 276 295 296 300 358 368 369 372 377 387 397 398 400 420 425
b 172 416 121 98 137 119 11 182 116 379 146 373 127 140 6 9 32 89 107 136 142 154 159 391 404 423 428 37 69 401 381 34 99 195 213 229 292 396 414 2 15 25 53 57 60 101 104 117 120 144 147 199 201 208 210 233 254 259 282 283 286 294 297 336 347 385 394 424 29 44 47 56 58 67 78 80 83 94 96 97 114 132 149 160 184 206 218 272 370 386 402 405 429 35 163 18 19 20 27 40 42 43 62 70 77 79 84 86 90 91 93 95 110 115 125 135 139 141 145 150 155 167 181 183 186 188 189 194 197 200 202 204 207 209 212 216 217 219 221 226 231 232 234 241 249 255 262 265 270 276 288 295 296 300 358 368 369 372 377 387 397 398 400 420 425
b 173 121 98 137 119 11 182 116 379 146 373 127 140 6 9 32 71 81 89 107 136 142 154 159 391 404 423 428 37 69 401 381 34 99 195 213 229 292 396 414 2 15 25 53 57 60 101 104 117 120 144 147 161 199 201 208 210 228 233 254 259 281 282 283 286 294 297 336 347 385 394 410 424 29 44 47 56 58 67 78 80 83 92 94 96 97 108 114 132 149 160 176 184 192 206 218 272 370 386 402 405 429 35 130 163 18 19 20 24 27 36 40 42 43 62 63 68 70 77 79 84 86 90 91 93 95 110 115 125 135 139 141 145 148 150 155 167 178 181 183 186 188 189 194 197 200 202 204 205 207 209 212 216 217 219 221 226 231 232 234 241 249 253 255 262 265 270 276 285 288 295 296 300 358 368 369 372 377 380 387 397 398 400 413 420 425
b 174 98 137 119 11 182 116 379 146 373 127 140 6 9 32 71 81 89 107 136 142 154 159 391 404 423 428 37 69 401 381 34 99 195 213 229 292 396 414 2 15 25 53 57 60 101 104 106 117 120 144 147 161 199 201 208 210 228 233 254 259 281 282 283 286 294 297 336 347 385 394 410 418 424 29 44 47 56 58 64 67 78 80 83 92 94 96 97 108 114 132 149 160 176 184 192 206 218 237 272 370 386 402 405 429 22 35 130 163 18 19 20 24 27 36 40 42 43 62 63 68 70 77 79 84 86 90 91 93 95 110 115 125 135 139 141 145 148 150 155 167 169 178 181 183 186 188 189 194 197 200 202 204 205 207 209 212 216 217 219 221 226 231 232 234 241 249 253 255 262 265 270 275 276 285 288 295 296 300 358 368 369 372 377 380 387 397 398 400 413 420 425
b 175 137 119 11 182 116 379 146 373 127 140 6 9 32 71 81 89 107 136 142 154 159 391 404 423 428 37 69 401 381 34 99 195 213 229 292 396 414 2 15 25 53 57 60 101 104 106 117 120 144 147 161 187 199 201 208 210 228 230 233 254 259 278 281 282 283 286 294 297 336 347 385 394 410 418 424 23 29 44 47 56 58 64 67 78 80 83 92 94 96 97 108 114 132 149 160 166 176 184 192 206 218 237 240 272 370 386 395 402 405 422 429 22 35 130 163 293 1 18 19 20 24 27 36 40 42 43 62 63 68 70 77 79 84 86 90 91 93 95 110 115 125 135 139 141 145 148 150 152 155 167 169 173 178 180 181 183 186 188 189 194 197 200 202 204 205 207 209 212 216 217 219 221 226 231 232 234 241 249 253 255 262 265 270 275 276 285 288 295 296 300 358 368 369 372 377 380 387 397 398 400 413 420 425
b 176 119 11 182 116 379 146 373 127 140 6 9 32 71 81 89 107 136 142 154 159 391 404 423 428 37 69 401 381 34 99 195 213 229 292 396 414 2 15 25 53 57 60 101 104 106 117 120 144 147 161 187 199 201 208 210 228 230 233 254 259 278 281 282 283 286 294 297 336 347 385 394 410 418 424 23 29 44 47 56 58 64 67 78 80 83 92 94 96 97 108 114 132 149 160 166 176 184 192 206 218 237 240 272 370 386 395 402 405 422 429 22 35 130 163 293 1 18 19 20 24 27 36 40 42 43 62 63 68 70 77 79 84 86 90 91 93 95 110 115 125 135 139 141 145 148 150 152 155 167 169 173 178 180 181 183 186 188 189 194 197 200 202 204 205 207 209 212 216 217 219 221 226 231 232 234 241 249 253 255 262 265 270 274 275 276 285 288 295 296 300 358 368 369 372 377 380 387 397 398 400 413 420 425
b 177 11 182 116 379 146 373 127 140 6 9 32 71 81 89 107 136 142 154 159 391 404 423 428 37 69 401 381 34 99 195 213 229 292 396 414 2 15 25 53 57 60 101 104 106 117 120 144 147 161 187 199 201 208 210 228 230 233 254 259 278 281 282 283 286 294 297 336 347 385 394 410 418 424 23 29 44 47 56 58 64 67 78 80 83 92 94 96 97 108 114 132 149 160 166 176 184 192 206 218 237 240 272 370 386 395 402 405 422 429 22 35 130 163 293 1 5 18 19 20 24 27 36 40 42 43 62 63 68 70 77 79 84 86 90 91 93 95 110 115 125 131 135 139 141 145 148 150 152 155 167 169 173 178 180 181 183 186 188 189 194 197 200 202 204 205 207 209 212 216 217 219 221 226 231 232 234 241 249 252 253 255 262 265 270 274 275 276 285 288 295 296 300 358 368 369 372 377 380 387 397 398 400 413 420 425
b 178 182 116 379 146 373 127 140 6 9 32 71 81 89 107 136 142 154 159 391 404 423 428 37 69 401 381 34 99 195 213 229 292 396 414 2 15 25 53 57 60 101 104 106 117 120 144 147 161 187 199 201 208 210 228 230 233 254 259 278 281 282 283 286 294 297 336 347 385 394 406 410 418 424 23 29 44 47 56 58 64 67 78 80 83 92 94 96 97 108 114 132 149 160 166 176 184 192 206 218 237 240 272 370 386 395 402 405 422 429 22 35 130 163 293 1 5 18 19 20 24 27 36 40 42 43 51 62 63 68 70 74 77 79 84 86 90 91 93 95 110 115 122 125 131 135 139 141 145 148 150 152 155 167 169 173 178 180 181 183 186 188 189 194 197 200 202 204 205 207 209 212 216 217 219 221 226 231 232 234 241 249 252 253 255 262 265 270 274 275 276 285 288 295 296 300 358 368 369 372 377 380 387 397 398 400 413 420 425
b 179 116 379 146 373 127 140 388 6 9 32 71 81 89 107 136 142 154 159 391 404 423 428 37 69 401 381 34 99 195 213 229 292 396 414 2 15 25 53 57 60 101 104 106 117 120 123 144 147 161 187 199 201 208 210 228 230 233 254 259 278 281 282 283 286 289 294 297 336 347 385 394 406 410 418 424 23 29 44 47 56 58 64 67 78 80 83 92 94 96 97 108 109 114 132 149 160 166 176 184 192 206 218 237 240 272 370 386 395 402 405 422 429 22 35 130 163 293 1 5 16 18 19 20 24 27 36 40 42 43 51 62 63 68 70 74 77 79 84 86 90 91 93 95 110 115 122 125 131 135 139 141 145 148 150 152 155 167 169 173 178 180 181 183 186 188 189 194 197 200 202 204 205 207 209 212 216 217 219 221 226 231 232 234 241 249 252 253 255 262 265 270 274 275 276 285 288 295 296 300 358 368 369 372 377 380 387 397 398 400 413 420 425
b 180 146 373 127 140 388 6 9 32 71 81 89 107 136 142 154 159 391 404 423 428 37 69 401 381 34 99 157 195 213 229 292 396 414 2 15 25 53 57 60 101 104 106 117 120 123 144 147 161 187 199 201 208 210 228 230 233 254 259 278 281 282 283 286 289 294 297 336 347 385 394 406 410 418 424 23 29 44 47 56 58 64 67 78 80 83 92 94 96 97 108 109 114 132 149 160 166 176 184 192 206 218 237 240 272 370 386 395 402 405 422 429 22 35 130 163 293 1 5 16 18 19 20 24 27 36 40 42 43 51 62 63 68 70 74 77 79 84 86 90 91 93 95 110 113 115 122 125 131 135 139 141 145 148 150 152 155 162 167 169 173 174 178 180 181 183 186 188 189 191 194 197 200 202 204 205 207 209 212 216 217 219 221 226 231 232 234 241 249 250 252 253 255 262 265 270 273 274 275 276 277 285 287 288 295 296 300 358 368 369 372 377 380 387 397 398 400 413 420 425
b 181 373 127 140 388 6 9 32 71 81 89 107 136 142 154 159 391 404 423 428 37 69 401 381 34 99 157 195 213 229 292 396 414 2 15 25 53 57 60 101 104 106 117 120 123 144 147 161 187 199 201 208 210 220 228 230 233 254 259 278 281 282 283 286 289 294 297 336 347 385 394 406 410 418 424 23 29 44 47 56 58 64 67 78 80 83 92 94 96 97 108 109 114 132 149 160 166 176 184 192 206 218 237 240 272 370 386 395 402 405 422 429 22 35 130 163 293 1 5 16 18 19 20 24 27 36 40 42 43 51 62 63 68 70 74 77 79 84 86 90 91 93 95 110 113 115 122 125 131 135 139 141 145 148 150 152 155 162 167 169 173 174 178 180 181 183 186 188 189 191 194 197 200 202 204 205 207 209 212 216 217 219 221 226 231 232 234 241 249 250 252 253 255 262 265 270 273 274 275 276 277 285 287 288 295 296 300 358 368 369 372 377 380 387 397 398 400 413 420 425
b 182 127 140 388 6 9 32 71 81 89 107 136 142 154 159 391 404 423 428 37 69 401 381 34 99 157 195 213 229 292 396 414 2 15 25 53 57 60 101 104 106 117 120 123 144 147 161 187 199 201 208 210 220 228 230 233 254 259 278 281 282 283 286 289 294 297 336 347 385 394 406 410 418 424 23 29 41 44 47 56 58 64 67 78 80 83 92 94 96 97 108 109 114 132 149 160 166 176 184 192 206 218 237 240 272 370 386 395 402 405 422 429 22 35 130 163 293 1 5 16 18 19 20 24 27 36 40 42 43 51 62 63 68 70 74 77 79 84 86 90 91 93 95 110 113 115 122 125 131 135 139 141 145 148 150 152 155 162 167 169 173 174 178 180 181 183 186 188 189 191 194 197 200 202 204 205 207 209 212 216 217 219 221 226 231 232 234 241 249 250 252 253 255 262 265 270 273 274 275 276 277 285 287 288 291 295 296 300 358 368 369 372 377 380 387 397 398 400 413 420 425
b 183 140 388 6 9 32 71 81 89 107 136 142 154 159 391 404 423 428 37 69 401 381 34 99 157 195 213 229 292 396 414 2 15 25 53 57 60 101 104 106 117 120 123 144 147 161 187 199 201 208 210 220 228 230 233 254 259 278 281 282 283 286 289 294 297 336 347 385 394 406 410 418 424 23 29 41 44 47 56 58 64 67 78 80 83 92 94 96 97 108 109 114 132 134 149 160 166 176 184 192 206 218 237 240 272 370 386 395 402 405 422 429 22 35 130 163 293 1 5 16 18 19 20 24 27 36 40 42 43 51 62 63 68 70 74 77 79 82 84 86 90 91 93 95 110 113 115 122 125 131 135 139 141 145 148 150 152 155 162 167 169 173 174 178 180 181 183 186 188 189 191 194 197 200 202 204 205 207 209 212 216 217 219 221 226 231 232 234 238 241 249 250 252 253 255 262 265 270 273 274 275 276 277 285 287 288 291 295 296 300 358 368 369 372 377 380 387 397 398 400 413 420 425
b 184 388 6 9 32 71 81 89 107 136 142 154 159 391 404 423 428 37 69 401 381 34 99 157 195 213 229 292 396 414 2 15 25 53 57 60 101 104 106 117 120 123 144 147 161 187 199 201 208 210 220 228 230 233 254 259 278 281 282 283 286 289 294 297 336 347 385 394 406 410 418 424 23 29 41 44 47 56 58 64 67 78 80 83 92 94 96 97 108 109 114 132 134 149 160 166 176 184 192 206 218 237 240 272 370 386 395 402 405 422 429 22 35 130 163 293 1 5 16 18 19 20 24 27 36 40 42 43 51 62 63 68 70 74 77 79 82 84 86 90 91 93 95 110 113 115 122 125 131 135 139 141 145 148 150 152 155 162 167 169 173 174 178 180 181 183 186 188 189 191 194 197 200 202 204 205 207 209 212 216 217 219 221 226 231 232 234 238 241 249 250 252 253 255 262 265 270 273 274 275 276 277 285 287 288 291 295 296 300 358 368 369 372 377 380 382 387 397 398 400 413 420 425
b 185 6 9 32 71 81 89 107 136 142 154 159 391 404 423 428 37 69 401 381 34 99 157 195 213 229 292 396 414 2 15 25 53 57 60 101 104 106 117 120 123 144 147 161 187 199 201 208 210 220 228 230 233 254 259 269 278 281 282 283 286 289 294 297 336 347 385 394 406 410 418 424 23 29 41 44 47 56 58 64 67 78 80 83 92 94 96 97 108 109 114 132 134 149 158 160 166 176 184 192 206 218 237 240 272 370 386 395 402 405 422 429 22 35 130 163 293 1 5 16 18 19 20 24 27 36 40 42 43 51 62 63 68 70 74 77 79 82 84 86 90 91 93 95 110 113 115 122 125 131 135 139 141 145 148 150 152 155 162 167 169 173 174 178 180 181 183 186 188 189 191 193 194 197 200 202 204 205 207 209 212 216 217 219 221 226 231 232 234 238 241 249 250 252 253 255 261 262 265 270 273 274 275 276 277 285 287 288 291 295 296 300 358 368 369 372 377 380 382 387 397 398 400 413 420 421 425
b 186 37 69 401 381 34 99 157 195 213 229 292 396 414 2 15 25 53 57 60 101 104 106 117 120 123 144 147 161 187 199 201 208 210 220 228 230 233 254 259 269 278 281 282 283 286 289 294 297 336 347 385 394 406 410 418 424 23 29 41 44 47 56 58 64 67 78 80 83 92 94 96 97 108 109 114 132 134 149 158 160 166 176 184 192 206 218 237 240 272 370 386 395 402 405 422 429 22 35 130 163 293 1 5 16 18 19 20 24 27 36 40 42 43 51 62 63 68 70 74 77 79 82 84 86 90 91 93 95 110 113 115 118 122 125 131 135 139 141 145 148 150 152 155 162 167 169 173 174 178 180 181 183 186 188 189 191 193 194 197 200 202 204 205 207 209 212 216 217 219 221 226 231 232 234 238 241 249 250 252 253 255 261 262 265 270 273 274 275 276 277 285 287 288 291 295 296 300 358 368 369 372 377 380 382 387 397 398 400 413 420 421 425
b 187 69 401 381 34 99 157 195 213 229 292 396 414 2 15 25 53 57 60 101 104 106 117 120 123 144 147 161 187 199 201 208 210 220 228 230 233 254 259 269 278 281 282 283 286 289 294 297 336 347 385 394 406 410 418 424 23 29 41 44 47 56 58 64 67 78 80 83 92 94 96 97 108 109 114 132 134 149 158 160 166 176 184 192 206 218 237 240 272 370 386 395 402 405 422 429 22 35 130 163 293 1 5 16 18 19 20 24 27 36 40 42 43 51 62 63 68 70 74 77 79 82 84 86 90 91 93 95 110 113 115 118 122 125 131 135 139 141 145 148 150 152 155 162 164 167 169 173 174 178 180 181 183 186 188 189 191 193 194 197 200 202 204 205 207 209 212 216 217 219 221 226 231 232 234 238 241 249 250 252 253 255 261 262 265 270 273 274 275 276 277 285 287 288 291 295 296 300 358 368 369 372 377 380 382 387 397 398 400 413 420 421 425
b 188 401 381 34 99 157 195 213 229 292 396 414 2 15 25 53 57 60 101 104 106 117 120 123 144 147 161 187 199 201 208 210 220 228 230 233 254 259 269 278 281 282 283 286 289 294 297 336 347 385 394 406 410 418 424 23 29 41 44 47 56 58 64 67 78 80 83 92 94 96 97 108 109 114 132 134 149 158 160 166 176 184 192 206 218 237 240 272 370 386 395 402 405 422 429 22 35 130 163 293 1 5 16 18 19 20 24 27 36 40 42 43 51 62 63 68 70 74 77 79 82 84 86 90 91 93 95 110 113 115 118 122 125 131 135 139 141 145 148 150 152 155 162 164 167 169 173 174 178 180 181 183 186 188 189 191 193 194 197 200 202 204 205 207 209 212 216 217 219 221 226 231 232 234 238 241 249 250 252 253 255 261 262 265 270 271 273 274 275 276 277 285 287 288 291 295 296 300 358 368 369 372 377 380 382 387 397 398 400 413 420 421 425
b 189 381 34 99 157 195 213 229 292 396 414 2 15 25 53 57 60 101 104 106 117 120 123 144 147 161 187 199 201 208 210 220 228 230 233 254 259 269 278 281 282 283 286 289 294 297 336 347 385 394 406 410 418 424 23 29 41 44 47 56 58 64 67 78 80 83 92 94 96 97 108 109 114 132 134 149 158 160 166 176 184 192 196 206 218 237 240 272 370 386 395 402 405 422 429 22 35 130 163 293 1 5 16 18 19 20 24 27 36 40 42 43 51 62 63 68 70 74 77 79 82 84 86 90 91 93 95 110 113 115 118 122 125 131 135 139 141 145 148 150 152 155 162 164 167 169 173 174 178 180 181 183 186 188 189 191 193 194 197 200 202 204 205 207 209 212 216 217 219 221 226 231 232 234 238 241 249 250 252 253 255 261 262 265 270 271 273 274 275 276 277 285 287 288 291 295 296 300 358 368 369 372 377 380 382 387 397 398 400 413 420 421 425
b 190 34 99 157 195 213 229 292 396 414 2 15 25 53 57 60 101 104 106 117 120 123 144 147 161 187 199 201 208 210 220 228 230 233 254 259 269 278 281 282 283 286 289 294 297 336 347 385 394 406 410 418 424 23 29 41 44 47 56 58 64 67 78 80 83 92 94 96 97 108 109 114 132 134 149 158 160 166 176 184 192 196 206 218 237 240 272 370 386 395 402 405 422 429 22 35 130 163 293 1 5 16 18 19 20 24 27 36 40 42 43 51 62 63 68 70 74 77 79 82 84 86 90 91 93 95 110 113 115 118 122 125 131 135 139 141 145 148 150 152 155 162 164 167 169 173 174 178 180 181 183 185 186 188 189 191 193 194 197 200 202 204 205 207 209 212 216 217 219 221 226 231 232 234 238 241 249 250 252 253 255 261 262 263 265 270 271 273 274 275 276 277 285 287 288 291 295 296 300 358 368 369 372 377 380 382 387 397 398 400 413 420 421 425
b 191 2 15 25 53 57 60 101 104 106 117 120 123 144 147 161 187 199 201 208 210 220 228 230 233 254 259 269 278 281 282 283 286 289 294 297 336 347 385 394 406 410 418 424 23 29 41 44 47 56 58 64 67 78 80 83 92 94 96 97 108 109 114 132 134 149 158 160 166 176 184 192 196 206 218 237 240 272 370 386 395 402 405 422 429 22 35 130 163 293 1 4 5 16 18 19 20 24 27 36 40 42 43 51 62 63 68 70 74 77 79 82 84 86 90 91 93 95 110 113 115 118 122 125 131 135 139 141 145 148 150 152 155 162 164 167 169 173 174 178 180 181 183 185 186 188 189 191 193 194 197 200 202 204 205 207 209 212 216 217 219 221 226 231 232 234 238 241 249 250 252 253 255 261 262 263 265 270 271 273 274 275 276 277 285 287 288 291 295 296 300 358 368 369 372 377 380 382 387 397 398 400 413 420 421 425
b 192 23 29 41 44 47 56 58 64 67 78 80 83 92 94 96 97 108 109 114 132 134 149 158 160 166 176 184 192 196 206 218 237 240 272 370 386 395 402 405 422 429 22 35 130 163 293 1 4 5 16 18 19 20 24 27 36 38 40 42 43 51 62 63 68 70 74 77 79 82 84 86 90 91 93 95 110 113 115 118 122 125 131 135 139 141 145 148 150 152 155 162 164 167 169 173 174 178 180 181 183 185 186 188 189 191 193 194 197 200 202 204 205 207 209 212 216 217 219 221 226 231 232 234 238 241 249 250 252 253 255 261 262 263 265 270 271 273 274 275 276 277 285 287 288 291 295 296 300 358 368 369 372 377 380 382 387 397 398 400 413 420 421 425
b 193 22 35 130 163 293 1 4 5 16 18 19 20 24 27 36 38 40 42 43 51 62 63 68 70 74 77 79 82 84 86 90 91 93 95 110 113 115 118 122 125 131 135 139 141 145 148 150 152 155 162 164 167 169 171 173 174 178 180 181 183 185 186 188 189 191 193 194 197 200 202 204 205 207 209 212 216 217 219 221 226 231 232 234 238 241 249 250 252 253 255 261 262 263 265 270 271 273 274 275 276 277 285 287 288 291 295 296 300 358 368 369 372 377 380 382 387 397 398 400 413 420 421 425
b 194 1 4 5 16 18 19 20 24 27 36 38 40 42 43 51 62 63 65 68 70 74 77 79 82 84 86 90 91 93 95 110 113 115 118 122 125 131 135 139 141 145 148 150 152 155 162 164 167 169 171 173 174 178 180 181 183 185 186 188 189 191 193 194 197 200 202 204 205 207 209 212 216 217 219 221 226 231 232 234 238 241 249 250 252 253 255 261 262 263 265 270 271 273 274 275 276 277 285 287 288 291 295 296 300 358 368 369 372 377 380 382 387 397 398 400 413 420 421 425
b 195 305
b 196 356
1 6
6 45
45 78
78 79
79 91
91 92
92 93
93 94
94 95
95 96
96 97
97 102
102 114
114 121
121 122
122 123
123 126
126 128
128 129
129 142
142 143
143 144
144 153
153 165
165 166
166 191
191 190
190 189
189 188
188 187
187 186
186 185
185 184
184 183
183 182
182 181
181 180
180 179
179 178
178 177
177 176
176 175
175 174
174 173
173 172
191 192
172 171
171 170
170 169
192 193
193 194
169 168
185 163
163 160
194 162
168 167
173 156
180 164
192 161
156 151
194 158
175 147
160 154
162 159
179 152
190 157
167 149
161 139
160 150
168 145
151 148
183 155
167 141
147 146
171 136
164 137
154 130
152 140
166 132
169 127
164 135
139 138
158 131
149 133
174 134
170 120
162 124
157 125
150 115
145 116
148 118
159 103
136 117
165 119
158 110
146 112
154 106
159 113
178 108
157 111
141 109
127 107
103 101
147 86
145 104
130 105
137 99
161 83
181 98
139 100
141 82
132 77
120 85
133 87
115 75
110 81
97 76
177 89
163 65
151 74
132 90
116 60
143 88
155 73
102 71
130 55
106 68
126 80
137 72
135 84
94 64
112 39
92 70
116 61
138 69
124 38
114 67
133 58
112 63
68 33
162 48
156 66
104 57
76 56
71 59
78 44
149 53
125 62
95 54
127 51
44 43
91 52
119 49
76 46
64 50
80 47
150 41
79 40
110 37
90 36
70 35
64 42
59 32
54 28
78 31
175 24
64 30
157 29
94 34
32 7
59 25
28 16
30 18
36 22
100 26
47 20
47 27
45 23
46 19
97 17
64 21
124 14
91 15
40 13
28 12
94 10
10 9
89 11
42 8
181 2
78 3
37 4
50 5
1 195
1 196
